1 -886 -890 0
-886 -887 -888 -890 0
-28 886 -890 0
864 28 886 -887 0
-887 -888 -890 0
d -886 -887 -888 -890 0
1 182 -23 28 0
886 -888 -889 -890 0
-888 -889 -890 0
d 886 -888 -889 -890 0
-886 -889 -890 0
-889 -890 0
d -888 -889 -890 0
886 -890 0
d -28 886 -890 0
-890 0
-1 23 -28 0
-28 -886 0
d -23 -28 -886 0
-886 0
28 0
1 0
-27 0
-864 0
-54 0
-2 0
23 0
859 0
0
